p cnf 467 1374
a 11 13 15 17 0
d 1 11 0
d 3 13 0
d 6 15 0
d 9 17 0
d 2 11 0
d 4 13 0
d 5 11 13 0
d 7 15 0
d 8 11 13 15 0
d 10 11 13 15 17 0
d 12 11 13 15 17 0
d 14 11 13 15 17 0
d 16 11 13 15 17 0
d 18 11 13 15 17 0
d 19 11 13 0
d 20 11 13 15 0
d 21 17 0
d 22 11 13 15 17 0
d 23 11 13 15 17 0
d 24 11 13 15 17 0
d 25 11 13 15 17 0
d 26 11 13 15 17 0
d 27 11 13 15 17 0
d 28 11 13 15 0
d 29 11 13 15 17 0
d 30 11 13 15 17 0
d 31 11 13 15 17 0
d 32 11 13 15 17 0
d 33 11 13 15 17 0
d 34 11 13 15 17 0
d 35 11 13 0
d 36 11 13 15 0
d 37 11 13 15 17 0
d 38 11 13 15 17 0
d 39 11 13 15 17 0
d 40 11 13 15 17 0
d 41 11 13 15 17 0
d 42 11 13 15 17 0
d 43 11 13 15 17 0
d 44 11 13 15 17 0
d 45 11 13 15 17 0
d 46 11 13 15 17 0
d 47 11 13 15 17 0
d 48 11 13 15 17 0
d 49 11 13 0
d 50 11 13 15 0
d 51 11 13 15 17 0
d 52 11 0
d 53 11 13 15 17 0
d 54 11 13 15 17 0
d 55 11 13 15 17 0
d 56 11 13 15 17 0
d 57 11 13 15 17 0
d 58 11 13 15 17 0
d 59 11 13 15 17 0
d 60 11 13 15 17 0
d 61 11 13 15 17 0
d 62 11 13 15 17 0
d 63 11 13 15 17 0
d 64 11 13 15 0
d 65 11 13 15 17 0
d 66 11 13 15 17 0
d 67 11 13 15 17 0
d 68 11 13 15 17 0
d 69 11 13 15 17 0
d 70 11 13 15 17 0
d 71 11 13 15 17 0
d 72 11 13 15 17 0
d 73 11 13 15 17 0
d 74 11 13 15 17 0
d 75 11 13 15 17 0
d 76 11 13 15 17 0
d 77 11 13 15 0
d 78 11 13 15 17 0
d 79 11 13 15 17 0
d 80 11 13 15 17 0
d 81 11 13 15 17 0
d 82 11 13 15 17 0
d 83 11 13 15 17 0
d 84 11 13 15 17 0
d 85 11 13 15 17 0
d 86 11 13 15 17 0
d 87 11 13 15 17 0
d 88 11 13 15 17 0
d 89 11 13 15 17 0
d 90 11 13 15 17 0
d 91 11 13 15 17 0
d 92 11 13 15 17 0
d 93 11 13 15 17 0
d 94 11 13 15 17 0
d 95 11 13 15 17 0
d 96 11 13 15 17 0
d 97 11 13 15 17 0
d 98 11 13 15 17 0
d 99 11 13 15 17 0
d 100 11 13 15 17 0
d 101 11 13 15 17 0
d 102 11 13 15 17 0
d 103 11 13 15 17 0
d 104 11 13 15 17 0
d 105 11 13 15 17 0
d 106 11 13 15 17 0
d 107 11 13 15 17 0
d 108 11 13 15 17 0
d 109 11 13 15 17 0
d 110 11 13 15 17 0
d 111 11 13 15 17 0
d 112 13 0
d 113 11 13 15 17 0
d 114 11 13 15 17 0
d 115 11 13 15 17 0
d 116 11 13 15 17 0
d 117 11 13 15 0
d 118 11 13 15 17 0
d 119 11 13 15 17 0
d 120 11 13 15 17 0
d 121 11 13 15 17 0
d 122 11 13 15 17 0
d 123 11 13 15 17 0
d 124 11 13 15 17 0
d 125 11 13 15 17 0
d 126 11 13 15 17 0
d 127 11 13 15 17 0
d 128 11 13 15 17 0
d 129 11 13 15 17 0
d 130 11 13 15 17 0
d 131 11 13 15 17 0
d 132 11 13 15 17 0
d 133 11 13 15 17 0
d 134 11 13 15 17 0
d 135 11 13 15 17 0
d 136 11 13 15 17 0
d 137 11 13 15 17 0
d 138 11 13 15 17 0
d 139 11 13 15 17 0
d 140 11 13 15 17 0
d 141 11 13 15 17 0
d 142 11 13 15 17 0
d 143 11 13 15 17 0
d 144 11 13 15 17 0
d 145 11 13 15 17 0
d 146 11 13 15 17 0
d 147 11 13 15 17 0
d 148 11 13 15 17 0
d 149 11 13 15 17 0
d 150 11 13 15 17 0
d 151 11 13 15 17 0
d 152 11 13 15 17 0
d 153 11 13 15 17 0
d 154 11 13 15 17 0
d 155 11 13 15 17 0
d 156 11 13 15 17 0
d 157 11 13 15 17 0
d 158 11 13 15 17 0
d 159 11 13 15 17 0
d 160 11 13 15 17 0
d 161 11 13 15 17 0
d 162 11 13 15 17 0
d 163 11 13 15 17 0
d 164 11 13 15 17 0
d 165 11 13 15 17 0
d 166 11 13 15 17 0
d 167 11 13 15 17 0
d 168 11 13 15 17 0
d 169 11 13 15 17 0
d 170 11 13 15 17 0
d 171 11 13 15 17 0
d 172 11 13 15 17 0
d 173 11 13 15 17 0
d 174 11 13 15 17 0
d 175 11 13 15 17 0
d 176 11 13 15 17 0
d 177 11 13 15 17 0
d 178 11 13 15 17 0
d 179 11 13 15 17 0
d 180 11 13 15 17 0
d 181 11 13 15 17 0
d 182 11 13 15 17 0
d 183 11 13 15 17 0
d 184 11 13 15 17 0
d 185 11 13 15 17 0
d 186 15 0
d 187 11 13 15 17 0
d 188 11 13 15 17 0
d 189 11 13 15 17 0
d 190 11 13 15 17 0
d 191 11 13 15 17 0
d 192 11 13 15 17 0
d 193 11 13 15 17 0
d 194 11 13 15 17 0
d 195 11 13 15 17 0
d 196 11 13 15 17 0
d 197 11 13 15 17 0
d 198 11 13 15 17 0
d 199 11 13 15 17 0
d 200 11 13 15 17 0
d 201 11 13 15 17 0
d 202 11 13 15 17 0
d 203 11 13 15 17 0
d 204 11 13 15 17 0
d 205 11 13 15 17 0
d 206 11 13 15 17 0
d 207 11 13 15 17 0
d 208 11 13 15 17 0
d 209 11 13 15 17 0
d 210 11 13 15 17 0
d 211 11 13 15 17 0
d 212 11 13 15 17 0
d 213 11 13 15 17 0
d 214 11 13 15 17 0
d 215 11 13 15 17 0
d 216 11 13 15 17 0
d 217 11 13 15 17 0
d 218 11 13 15 17 0
d 219 11 13 15 17 0
d 220 11 13 15 17 0
d 221 11 13 15 17 0
d 222 11 13 15 17 0
d 223 11 13 15 17 0
d 224 11 13 15 17 0
d 225 11 13 15 17 0
d 226 11 13 15 17 0
d 227 11 13 15 17 0
d 228 11 13 15 17 0
d 229 11 13 15 17 0
d 230 11 13 15 17 0
d 231 11 13 15 17 0
d 232 11 13 15 17 0
d 233 11 13 15 17 0
d 234 11 13 15 17 0
d 235 11 13 15 17 0
d 236 11 13 15 17 0
d 237 11 13 15 17 0
d 238 11 13 15 17 0
d 239 11 13 15 17 0
d 240 11 13 15 17 0
d 241 11 13 15 17 0
d 242 11 13 15 17 0
d 243 11 13 15 17 0
d 244 11 13 15 17 0
d 245 11 13 15 17 0
d 246 11 13 15 17 0
d 247 11 13 15 17 0
d 248 11 13 15 17 0
d 249 11 13 15 17 0
d 250 11 13 15 17 0
d 251 11 13 15 17 0
d 252 11 13 15 17 0
d 253 11 13 15 17 0
d 254 11 13 15 17 0
d 255 11 13 15 17 0
d 256 11 13 15 17 0
d 257 11 13 15 17 0
d 258 11 13 15 17 0
d 259 11 13 15 17 0
d 260 11 13 15 17 0
d 261 11 13 15 17 0
d 262 11 13 15 17 0
d 263 11 13 15 17 0
d 264 11 13 15 17 0
d 265 11 13 15 17 0
d 266 11 13 15 17 0
d 267 11 13 15 17 0
d 268 11 13 15 17 0
d 269 11 13 15 17 0
d 270 11 13 15 17 0
d 271 11 13 15 17 0
d 272 11 13 15 17 0
d 273 11 13 15 17 0
d 274 11 13 15 17 0
d 275 11 13 15 17 0
d 276 11 13 15 17 0
d 277 11 13 15 17 0
d 278 11 13 15 17 0
d 279 11 13 15 17 0
d 280 11 13 15 17 0
d 281 11 13 15 17 0
d 282 11 13 15 17 0
d 283 11 13 15 17 0
d 284 11 13 15 17 0
d 285 11 13 15 17 0
d 286 11 13 15 17 0
d 287 11 13 15 17 0
d 288 11 13 15 17 0
d 289 17 0
d 290 11 13 15 17 0
d 291 11 13 15 17 0
d 292 11 13 15 17 0
d 293 11 13 15 17 0
d 294 11 13 15 17 0
d 295 11 13 15 17 0
d 296 11 13 15 17 0
d 297 11 13 15 17 0
d 298 11 13 15 17 0
d 299 11 13 15 17 0
d 300 11 13 15 17 0
d 301 11 13 15 17 0
d 302 11 13 15 17 0
d 303 11 13 15 17 0
d 304 11 13 15 17 0
d 305 11 13 15 17 0
d 306 11 13 15 17 0
d 307 11 13 15 17 0
d 308 11 13 15 17 0
d 309 11 13 15 17 0
d 310 11 13 15 17 0
d 311 11 13 15 17 0
d 312 11 13 15 17 0
d 313 11 13 15 17 0
d 314 11 13 15 17 0
d 315 11 13 15 17 0
d 316 11 13 15 17 0
d 317 11 13 15 17 0
d 318 11 13 15 17 0
d 319 11 13 15 17 0
d 320 11 13 15 17 0
d 321 11 13 15 17 0
d 322 11 13 15 17 0
d 323 11 13 15 17 0
d 324 11 13 15 17 0
d 325 11 13 15 17 0
d 326 11 13 15 17 0
d 327 11 13 15 17 0
d 328 11 13 15 17 0
d 329 11 13 15 17 0
d 330 11 13 15 17 0
d 331 11 13 15 17 0
d 332 11 13 15 17 0
d 333 11 13 15 17 0
d 334 11 13 15 17 0
d 335 11 13 15 17 0
d 336 11 13 15 17 0
d 337 11 13 15 17 0
d 338 11 13 15 17 0
d 339 11 13 15 17 0
d 340 11 13 15 17 0
d 341 11 13 15 17 0
d 342 11 13 15 17 0
d 343 11 13 15 17 0
d 344 11 13 15 17 0
d 345 11 13 15 17 0
d 346 11 13 15 17 0
d 347 11 13 15 17 0
d 348 11 13 15 17 0
d 349 11 13 15 17 0
d 350 11 13 15 17 0
d 351 11 13 15 17 0
d 352 11 13 15 17 0
d 353 11 13 15 17 0
d 354 11 13 15 17 0
d 355 11 13 15 17 0
d 356 11 13 15 17 0
d 357 11 13 15 17 0
d 358 11 13 15 17 0
d 359 11 13 15 17 0
d 360 11 13 15 17 0
d 361 11 13 15 17 0
d 362 11 13 15 17 0
d 363 11 13 15 17 0
d 364 11 13 15 17 0
d 365 11 13 15 17 0
d 366 11 13 15 17 0
d 367 11 13 15 17 0
d 368 11 13 15 17 0
d 369 11 13 15 17 0
d 370 11 13 15 17 0
d 371 11 13 15 17 0
d 372 11 13 15 17 0
d 373 11 13 15 17 0
d 374 11 13 15 17 0
d 375 11 13 15 17 0
d 376 11 13 15 17 0
d 377 11 13 15 17 0
d 378 11 13 15 17 0
d 379 11 13 15 17 0
d 380 11 13 15 17 0
d 381 11 13 15 17 0
d 382 11 13 15 17 0
d 383 11 13 15 17 0
d 384 11 13 15 17 0
d 385 11 13 15 17 0
d 386 11 13 15 17 0
d 387 11 13 15 17 0
d 388 11 13 15 17 0
d 389 11 13 15 17 0
d 390 11 13 15 17 0
d 391 11 13 15 17 0
d 392 11 13 15 17 0
d 393 11 13 15 17 0
d 394 11 13 15 17 0
d 395 11 13 15 17 0
d 396 11 13 15 17 0
d 397 11 13 15 17 0
d 398 11 13 15 17 0
d 399 11 13 15 17 0
d 400 11 13 15 17 0
d 401 11 13 15 17 0
d 402 11 13 15 17 0
d 403 11 13 15 17 0
d 404 11 13 15 17 0
d 405 11 13 15 17 0
d 406 11 13 15 17 0
d 407 11 13 15 17 0
d 408 11 13 15 17 0
d 409 11 13 15 17 0
d 410 11 13 15 17 0
d 411 11 13 15 17 0
d 412 11 13 15 17 0
d 413 11 13 15 17 0
d 414 11 13 15 17 0
d 415 11 13 15 17 0
d 416 11 13 15 17 0
d 417 11 13 15 17 0
d 418 11 13 15 17 0
d 419 11 13 15 17 0
d 420 11 13 15 17 0
d 421 11 13 15 17 0
d 422 11 13 15 17 0
d 423 11 13 15 17 0
d 424 11 13 15 17 0
d 425 11 13 15 17 0
d 426 11 13 15 17 0
d 427 11 13 15 17 0
d 428 11 13 15 17 0
d 429 11 13 15 17 0
d 430 11 13 15 17 0
d 431 11 13 15 17 0
d 432 11 13 15 17 0
d 433 11 13 15 17 0
d 434 11 13 15 17 0
d 435 11 13 15 17 0
d 436 11 13 15 17 0
d 437 11 13 15 17 0
d 438 11 13 15 17 0
d 439 11 13 15 17 0
d 440 11 13 15 17 0
d 441 11 13 15 17 0
d 442 11 13 15 17 0
d 443 11 13 15 17 0
d 444 11 13 15 17 0
d 445 11 13 15 17 0
d 446 11 13 15 17 0
d 447 11 13 15 17 0
d 448 11 13 15 17 0
d 449 11 13 15 17 0
d 450 11 13 15 17 0
d 451 11 13 15 17 0
d 452 11 13 15 17 0
d 453 11 13 15 17 0
d 454 11 13 15 17 0
d 455 11 13 15 17 0
d 456 11 13 15 17 0
d 457 11 13 15 17 0
d 458 11 13 15 17 0
d 459 11 13 15 17 0
d 460 11 13 15 17 0
d 461 11 13 15 17 0
d 462 11 13 15 17 0
d 463 11 13 15 17 0
d 464 11 13 0
d 465 11 13 15 0
d 466 11 13 15 17 0
d 467 11 13 15 17 0
2 1 0
-2 -1 0
4 3 0
-4 -3 0
-5 2 0
-5 4 0
5 -2 -4 0
7 6 0
-7 -6 0
-8 5 0
-8 7 0
8 -5 -7 0
-10 8 0
-10 9 0
10 -8 -9 0
-12 10 0
-12 11 0
12 -10 -11 0
-14 12 0
-14 13 0
14 -12 -13 0
-16 14 0
-16 15 0
16 -14 -15 0
-18 16 0
-18 17 0
18 -16 -17 0
-19 1 0
-19 3 0
19 -1 -3 0
-20 19 0
-20 6 0
20 -19 -6 0
21 9 0
-21 -9 0
-22 20 0
-22 21 0
22 -20 -21 0
-23 22 0
-23 11 0
23 -22 -11 0
-24 23 0
-24 13 0
24 -23 -13 0
-25 24 0
-25 15 0
25 -24 -15 0
-26 25 0
-26 17 0
26 -25 -17 0
27 -18 0
27 -26 0
-27 18 26 0
-28 5 0
-28 6 0
28 -5 -6 0
-29 28 0
-29 21 0
29 -28 -21 0
-30 29 0
-30 11 0
30 -29 -11 0
-31 30 0
-31 13 0
31 -30 -13 0
-32 31 0
-32 15 0
32 -31 -15 0
-33 32 0
-33 17 0
33 -32 -17 0
34 -27 0
34 -33 0
-34 27 33 0
-35 2 0
-35 3 0
35 -2 -3 0
-36 35 0
-36 7 0
36 -35 -7 0
-37 36 0
-37 21 0
37 -36 -21 0
-38 37 0
-38 11 0
38 -37 -11 0
-39 38 0
-39 13 0
39 -38 -13 0
-40 39 0
-40 15 0
40 -39 -15 0
-41 40 0
-41 17 0
41 -40 -17 0
42 -34 0
42 -41 0
-42 34 41 0
-43 8 0
-43 21 0
43 -8 -21 0
-44 43 0
-44 11 0
44 -43 -11 0
-45 44 0
-45 13 0
45 -44 -13 0
-46 45 0
-46 15 0
46 -45 -15 0
-47 46 0
-47 17 0
47 -46 -17 0
48 -42 0
48 -47 0
-48 42 47 0
-49 1 0
-49 4 0
49 -1 -4 0
-50 49 0
-50 6 0
50 -49 -6 0
-51 50 0
-51 9 0
51 -50 -9 0
52 11 0
-52 -11 0
-53 51 0
-53 52 0
53 -51 -52 0
-54 53 0
-54 13 0
54 -53 -13 0
-55 54 0
-55 15 0
55 -54 -15 0
-56 55 0
-56 17 0
56 -55 -17 0
57 -48 0
57 -56 0
-57 48 56 0
-58 28 0
-58 9 0
58 -28 -9 0
-59 58 0
-59 52 0
59 -58 -52 0
-60 59 0
-60 13 0
60 -59 -13 0
-61 60 0
-61 15 0
61 -60 -15 0
-62 61 0
-62 17 0
62 -61 -17 0
63 -57 0
63 -62 0
-63 57 62 0
-64 19 0
-64 7 0
64 -19 -7 0
-65 64 0
-65 9 0
65 -64 -9 0
-66 65 0
-66 52 0
66 -65 -52 0
-67 66 0
-67 13 0
67 -66 -13 0
-68 67 0
-68 15 0
68 -67 -15 0
-69 68 0
-69 17 0
69 -68 -17 0
70 -63 0
70 -69 0
-70 63 69 0
-71 36 0
-71 9 0
71 -36 -9 0
-72 71 0
-72 52 0
72 -71 -52 0
-73 72 0
-73 13 0
73 -72 -13 0
-74 73 0
-74 15 0
74 -73 -15 0
-75 74 0
-75 17 0
75 -74 -17 0
76 -70 0
76 -75 0
-76 70 75 0
-77 49 0
-77 7 0
77 -49 -7 0
-78 77 0
-78 9 0
78 -77 -9 0
-79 78 0
-79 52 0
79 -78 -52 0
-80 79 0
-80 13 0
80 -79 -13 0
-81 80 0
-81 15 0
81 -80 -15 0
-82 81 0
-82 17 0
82 -81 -17 0
83 -76 0
83 -82 0
-83 76 82 0
-84 10 0
-84 52 0
84 -10 -52 0
-85 84 0
-85 13 0
85 -84 -13 0
-86 85 0
-86 15 0
86 -85 -15 0
-87 86 0
-87 17 0
87 -86 -17 0
88 -83 0
88 -87 0
-88 83 87 0
-89 29 0
-89 52 0
89 -29 -52 0
-90 89 0
-90 13 0
90 -89 -13 0
-91 90 0
-91 15 0
91 -90 -15 0
-92 91 0
-92 17 0
92 -91 -17 0
93 -88 0
93 -92 0
-93 88 92 0
-94 64 0
-94 21 0
94 -64 -21 0
-95 94 0
-95 52 0
95 -94 -52 0
-96 95 0
-96 13 0
96 -95 -13 0
-97 96 0
-97 15 0
97 -96 -15 0
-98 97 0
-98 17 0
98 -97 -17 0
99 -93 0
99 -98 0
-99 93 98 0
-100 37 0
-100 52 0
100 -37 -52 0
-101 100 0
-101 13 0
101 -100 -13 0
-102 101 0
-102 15 0
102 -101 -15 0
-103 102 0
-103 17 0
103 -102 -17 0
104 -99 0
104 -103 0
-104 99 103 0
-105 43 0
-105 52 0
105 -43 -52 0
-106 105 0
-106 13 0
106 -105 -13 0
-107 106 0
-107 15 0
107 -106 -15 0
-108 107 0
-108 17 0
108 -107 -17 0
109 -104 0
109 -108 0
-109 104 108 0
-110 20 0
-110 9 0
110 -20 -9 0
-111 110 0
-111 11 0
111 -110 -11 0
112 13 0
-112 -13 0
-113 111 0
-113 112 0
113 -111 -112 0
-114 113 0
-114 15 0
114 -113 -15 0
-115 114 0
-115 17 0
115 -114 -17 0
116 -109 0
116 -115 0
-116 109 115 0
-117 35 0
-117 6 0
117 -35 -6 0
-118 117 0
-118 9 0
118 -117 -9 0
-119 118 0
-119 11 0
119 -118 -11 0
-120 119 0
-120 112 0
120 -119 -112 0
-121 120 0
-121 15 0
121 -120 -15 0
-122 121 0
-122 17 0
122 -121 -17 0
123 -116 0
123 -122 0
-123 116 122 0
-124 51 0
-124 11 0
124 -51 -11 0
-125 124 0
-125 112 0
125 -124 -112 0
-126 125 0
-126 15 0
126 -125 -15 0
-127 126 0
-127 17 0
127 -126 -17 0
128 -123 0
128 -127 0
-128 123 127 0
-129 65 0
-129 11 0
129 -65 -11 0
-130 129 0
-130 112 0
130 -129 -112 0
-131 130 0
-131 15 0
131 -130 -15 0
-132 131 0
-132 17 0
132 -131 -17 0
133 -128 0
133 -132 0
-133 128 132 0
-134 78 0
-134 11 0
134 -78 -11 0
-135 134 0
-135 112 0
135 -134 -112 0
-136 135 0
-136 15 0
136 -135 -15 0
-137 136 0
-137 17 0
137 -136 -17 0
138 -133 0
138 -137 0
-138 133 137 0
-139 12 0
-139 112 0
139 -12 -112 0
-140 139 0
-140 15 0
140 -139 -15 0
-141 140 0
-141 17 0
141 -140 -17 0
142 -138 0
142 -141 0
-142 138 141 0
-143 23 0
-143 112 0
143 -23 -112 0
-144 143 0
-144 15 0
144 -143 -15 0
-145 144 0
-145 17 0
145 -144 -17 0
146 -142 0
146 -145 0
-146 142 145 0
-147 117 0
-147 21 0
147 -117 -21 0
-148 147 0
-148 11 0
148 -147 -11 0
-149 148 0
-149 112 0
149 -148 -112 0
-150 149 0
-150 15 0
150 -149 -15 0
-151 150 0
-151 17 0
151 -150 -17 0
152 -146 0
152 -151 0
-152 146 151 0
-153 30 0
-153 112 0
153 -30 -112 0
-154 153 0
-154 15 0
154 -153 -15 0
-155 154 0
-155 17 0
155 -154 -17 0
156 -152 0
156 -155 0
-156 152 155 0
-157 38 0
-157 112 0
157 -38 -112 0
-158 157 0
-158 15 0
158 -157 -15 0
-159 158 0
-159 17 0
159 -158 -17 0
160 -156 0
160 -159 0
-160 156 159 0
-161 77 0
-161 21 0
161 -77 -21 0
-162 161 0
-162 11 0
162 -161 -11 0
-163 162 0
-163 112 0
163 -162 -112 0
-164 163 0
-164 15 0
164 -163 -15 0
-165 164 0
-165 17 0
165 -164 -17 0
166 -160 0
166 -165 0
-166 160 165 0
-167 44 0
-167 112 0
167 -44 -112 0
-168 167 0
-168 15 0
168 -167 -15 0
-169 168 0
-169 17 0
169 -168 -17 0
170 -166 0
170 -169 0
-170 166 169 0
-171 72 0
-171 112 0
171 -72 -112 0
-172 171 0
-172 15 0
172 -171 -15 0
-173 172 0
-173 17 0
173 -172 -17 0
174 -170 0
174 -173 0
-174 170 173 0
-175 84 0
-175 112 0
175 -84 -112 0
-176 175 0
-176 15 0
176 -175 -15 0
-177 176 0
-177 17 0
177 -176 -17 0
178 -174 0
178 -177 0
-178 174 177 0
-179 50 0
-179 21 0
179 -50 -21 0
-180 179 0
-180 52 0
180 -179 -52 0
-181 180 0
-181 112 0
181 -180 -112 0
-182 181 0
-182 15 0
182 -181 -15 0
-183 182 0
-183 17 0
183 -182 -17 0
184 -178 0
184 -183 0
-184 178 183 0
-185 111 0
-185 13 0
185 -111 -13 0
186 15 0
-186 -15 0
-187 185 0
-187 186 0
187 -185 -186 0
-188 187 0
-188 17 0
188 -187 -17 0
189 -184 0
189 -188 0
-189 184 188 0
-190 124 0
-190 13 0
190 -124 -13 0
-191 190 0
-191 186 0
191 -190 -186 0
-192 191 0
-192 17 0
192 -191 -17 0
193 -189 0
193 -192 0
-193 189 192 0
-194 58 0
-194 11 0
194 -58 -11 0
-195 194 0
-195 13 0
195 -194 -13 0
-196 195 0
-196 186 0
196 -195 -186 0
-197 196 0
-197 17 0
197 -196 -17 0
198 -193 0
198 -197 0
-198 193 197 0
-199 162 0
-199 13 0
199 -162 -13 0
-200 199 0
-200 186 0
200 -199 -186 0
-201 200 0
-201 17 0
201 -200 -17 0
202 -198 0
202 -201 0
-202 198 201 0
-203 110 0
-203 52 0
203 -110 -52 0
-204 203 0
-204 13 0
204 -203 -13 0
-205 204 0
-205 186 0
205 -204 -186 0
-206 205 0
-206 17 0
206 -205 -17 0
207 -202 0
207 -206 0
-207 202 206 0
-208 73 0
-208 186 0
208 -73 -186 0
-209 208 0
-209 17 0
209 -208 -17 0
210 -207 0
210 -209 0
-210 207 209 0
-211 85 0
-211 186 0
211 -85 -186 0
-212 211 0
-212 17 0
212 -211 -17 0
213 -210 0
213 -212 0
-213 210 212 0
-214 147 0
-214 52 0
214 -147 -52 0
-215 214 0
-215 13 0
215 -214 -13 0
-216 215 0
-216 186 0
216 -215 -186 0
-217 216 0
-217 17 0
217 -216 -17 0
218 -213 0
218 -217 0
-218 213 217 0
-219 180 0
-219 13 0
219 -180 -13 0
-220 219 0
-220 186 0
220 -219 -186 0
-221 220 0
-221 17 0
221 -220 -17 0
222 -218 0
222 -221 0
-222 218 221 0
-223 96 0
-223 186 0
223 -96 -186 0
-224 223 0
-224 17 0
224 -223 -17 0
225 -222 0
225 -224 0
-225 222 224 0
-226 161 0
-226 52 0
226 -161 -52 0
-227 226 0
-227 13 0
227 -226 -13 0
-228 227 0
-228 186 0
228 -227 -186 0
-229 228 0
-229 17 0
229 -228 -17 0
230 -225 0
230 -229 0
-230 225 229 0
-231 106 0
-231 186 0
231 -106 -186 0
-232 231 0
-232 17 0
232 -231 -17 0
233 -230 0
233 -232 0
-233 230 232 0
-234 125 0
-234 186 0
234 -125 -186 0
-235 234 0
-235 17 0
235 -234 -17 0
236 -233 0
236 -235 0
-236 233 235 0
-237 194 0
-237 112 0
237 -194 -112 0
-238 237 0
-238 186 0
238 -237 -186 0
-239 238 0
-239 17 0
239 -238 -17 0
240 -236 0
240 -239 0
-240 236 239 0
-241 135 0
-241 186 0
241 -135 -186 0
-242 241 0
-242 17 0
242 -241 -17 0
243 -240 0
243 -242 0
-243 240 242 0
-244 139 0
-244 186 0
244 -139 -186 0
-245 244 0
-245 17 0
245 -244 -17 0
246 -243 0
246 -245 0
-246 243 245 0
-247 143 0
-247 186 0
247 -143 -186 0
-248 247 0
-248 17 0
248 -247 -17 0
249 -246 0
249 -248 0
-249 246 248 0
-250 94 0
-250 11 0
250 -94 -11 0
-251 250 0
-251 112 0
251 -250 -112 0
-252 251 0
-252 186 0
252 -251 -186 0
-253 252 0
-253 17 0
253 -252 -17 0
254 -249 0
254 -253 0
-254 249 253 0
-255 167 0
-255 186 0
255 -167 -186 0
-256 255 0
-256 17 0
256 -255 -17 0
257 -254 0
257 -256 0
-257 254 256 0
-258 53 0
-258 112 0
258 -53 -112 0
-259 258 0
-259 186 0
259 -258 -186 0
-260 259 0
-260 17 0
260 -259 -17 0
261 -257 0
261 -260 0
-261 257 260 0
-262 66 0
-262 112 0
262 -66 -112 0
-263 262 0
-263 186 0
263 -262 -186 0
-264 263 0
-264 17 0
264 -263 -17 0
265 -261 0
265 -264 0
-265 261 264 0
-266 175 0
-266 186 0
266 -175 -186 0
-267 266 0
-267 17 0
267 -266 -17 0
268 -265 0
268 -267 0
-268 265 267 0
-269 214 0
-269 112 0
269 -214 -112 0
-270 269 0
-270 186 0
270 -269 -186 0
-271 270 0
-271 17 0
271 -270 -17 0
272 -268 0
272 -271 0
-272 268 271 0
-273 181 0
-273 186 0
273 -181 -186 0
-274 273 0
-274 17 0
274 -273 -17 0
275 -272 0
275 -274 0
-275 272 274 0
-276 95 0
-276 112 0
276 -95 -112 0
-277 276 0
-277 186 0
277 -276 -186 0
-278 277 0
-278 17 0
278 -277 -17 0
279 -275 0
279 -278 0
-279 275 278 0
-280 226 0
-280 112 0
280 -226 -112 0
-281 280 0
-281 186 0
281 -280 -186 0
-282 281 0
-282 17 0
282 -281 -17 0
283 -279 0
283 -282 0
-283 279 282 0
-284 105 0
-284 112 0
284 -105 -112 0
-285 284 0
-285 186 0
285 -284 -186 0
-286 285 0
-286 17 0
286 -285 -17 0
287 -283 0
287 -286 0
-287 283 286 0
-288 185 0
-288 15 0
288 -185 -15 0
289 17 0
-289 -17 0
-290 288 0
-290 289 0
290 -288 -289 0
291 -287 0
291 -290 0
-291 287 290 0
-292 129 0
-292 13 0
292 -129 -13 0
-293 292 0
-293 15 0
293 -292 -15 0
-294 293 0
-294 289 0
294 -293 -289 0
295 -291 0
295 -294 0
-295 291 294 0
-296 134 0
-296 13 0
296 -134 -13 0
-297 296 0
-297 15 0
297 -296 -15 0
-298 297 0
-298 289 0
298 -297 -289 0
299 -295 0
299 -298 0
-299 295 298 0
-300 25 0
-300 289 0
300 -25 -289 0
301 -299 0
301 -300 0
-301 299 300 0
-302 32 0
-302 289 0
302 -32 -289 0
303 -301 0
303 -302 0
-303 301 302 0
-304 199 0
-304 15 0
304 -199 -15 0
-305 304 0
-305 289 0
305 -304 -289 0
306 -303 0
306 -305 0
-306 303 305 0
-307 204 0
-307 15 0
307 -204 -15 0
-308 307 0
-308 289 0
308 -307 -289 0
309 -306 0
309 -308 0
-309 306 308 0
-310 61 0
-310 289 0
310 -61 -289 0
311 -309 0
311 -310 0
-311 309 310 0
-312 81 0
-312 289 0
312 -81 -289 0
313 -311 0
313 -312 0
-313 311 312 0
-314 86 0
-314 289 0
314 -86 -289 0
315 -313 0
315 -314 0
-315 313 314 0
-316 215 0
-316 15 0
316 -215 -15 0
-317 316 0
-317 289 0
317 -316 -289 0
318 -315 0
318 -317 0
-318 315 317 0
-319 219 0
-319 15 0
319 -219 -15 0
-320 319 0
-320 289 0
320 -319 -289 0
321 -318 0
321 -320 0
-321 318 320 0
-322 91 0
-322 289 0
322 -91 -289 0
323 -321 0
323 -322 0
-323 321 322 0
-324 97 0
-324 289 0
324 -97 -289 0
325 -323 0
325 -324 0
-325 323 324 0
-326 102 0
-326 289 0
326 -102 -289 0
327 -325 0
327 -326 0
-327 325 326 0
-328 107 0
-328 289 0
328 -107 -289 0
329 -327 0
329 -328 0
-329 327 328 0
-330 114 0
-330 289 0
330 -114 -289 0
331 -329 0
331 -330 0
-331 329 330 0
-332 121 0
-332 289 0
332 -121 -289 0
333 -331 0
333 -332 0
-333 331 332 0
-334 126 0
-334 289 0
334 -126 -289 0
335 -333 0
335 -334 0
-335 333 334 0
-336 131 0
-336 289 0
336 -131 -289 0
337 -335 0
337 -336 0
-337 335 336 0
-338 71 0
-338 11 0
338 -71 -11 0
-339 338 0
-339 112 0
339 -338 -112 0
-340 339 0
-340 15 0
340 -339 -15 0
-341 340 0
-341 289 0
341 -340 -289 0
342 -337 0
342 -341 0
-342 337 341 0
-343 136 0
-343 289 0
343 -136 -289 0
344 -342 0
344 -343 0
-344 342 343 0
-345 140 0
-345 289 0
345 -140 -289 0
346 -344 0
346 -345 0
-346 344 345 0
-347 144 0
-347 289 0
347 -144 -289 0
348 -346 0
348 -347 0
-348 346 347 0
-349 158 0
-349 289 0
349 -158 -289 0
350 -348 0
350 -349 0
-350 348 349 0
-351 203 0
-351 112 0
351 -203 -112 0
-352 351 0
-352 15 0
352 -351 -15 0
-353 352 0
-353 289 0
353 -352 -289 0
354 -350 0
354 -353 0
-354 350 353 0
-355 59 0
-355 112 0
355 -59 -112 0
-356 355 0
-356 15 0
356 -355 -15 0
-357 356 0
-357 289 0
357 -356 -289 0
358 -354 0
358 -357 0
-358 354 357 0
-359 262 0
-359 15 0
359 -262 -15 0
-360 359 0
-360 289 0
360 -359 -289 0
361 -358 0
361 -360 0
-361 358 360 0
-362 79 0
-362 112 0
362 -79 -112 0
-363 362 0
-363 15 0
363 -362 -15 0
-364 363 0
-364 289 0
364 -363 -289 0
365 -361 0
365 -364 0
-365 361 364 0
-366 22 0
-366 52 0
366 -22 -52 0
-367 366 0
-367 112 0
367 -366 -112 0
-368 367 0
-368 15 0
368 -367 -15 0
-369 368 0
-369 289 0
369 -368 -289 0
370 -365 0
370 -369 0
-370 365 369 0
-371 276 0
-371 15 0
371 -276 -15 0
-372 371 0
-372 289 0
372 -371 -289 0
373 -370 0
373 -372 0
-373 370 372 0
-374 284 0
-374 15 0
374 -284 -15 0
-375 374 0
-375 289 0
375 -374 -289 0
376 -373 0
376 -375 0
-376 373 375 0
-377 119 0
-377 13 0
377 -119 -13 0
-378 377 0
-378 186 0
378 -377 -186 0
-379 378 0
-379 289 0
379 -378 -289 0
380 -376 0
380 -379 0
-380 376 379 0
-381 191 0
-381 289 0
381 -191 -289 0
382 -380 0
382 -381 0
-382 380 381 0
-383 292 0
-383 186 0
383 -292 -186 0
-384 383 0
-384 289 0
384 -383 -289 0
385 -382 0
385 -384 0
-385 382 384 0
-386 24 0
-386 186 0
386 -24 -186 0
-387 386 0
-387 289 0
387 -386 -289 0
388 -385 0
388 -387 0
-388 385 387 0
-389 179 0
-389 11 0
389 -179 -11 0
-390 389 0
-390 13 0
390 -389 -13 0
-391 390 0
-391 186 0
391 -390 -186 0
-392 391 0
-392 289 0
392 -391 -289 0
393 -388 0
393 -392 0
-393 388 392 0
-394 118 0
-394 52 0
394 -118 -52 0
-395 394 0
-395 13 0
395 -394 -13 0
-396 395 0
-396 186 0
396 -395 -186 0
-397 396 0
-397 289 0
397 -396 -289 0
398 -393 0
398 -397 0
-398 393 397 0
-399 60 0
-399 186 0
399 -60 -186 0
-400 399 0
-400 289 0
400 -399 -289 0
401 -398 0
401 -400 0
-401 398 400 0
-402 208 0
-402 289 0
402 -208 -289 0
403 -401 0
403 -402 0
-403 401 402 0
-404 80 0
-404 186 0
404 -80 -186 0
-405 404 0
-405 289 0
405 -404 -289 0
406 -403 0
406 -405 0
-406 403 405 0
-407 211 0
-407 289 0
407 -211 -289 0
408 -406 0
408 -407 0
-408 406 407 0
-409 216 0
-409 289 0
409 -216 -289 0
410 -408 0
410 -409 0
-410 408 409 0
-411 220 0
-411 289 0
411 -220 -289 0
412 -410 0
412 -411 0
-412 410 411 0
-413 90 0
-413 186 0
413 -90 -186 0
-414 413 0
-414 289 0
414 -413 -289 0
415 -412 0
415 -414 0
-415 412 414 0
-416 101 0
-416 186 0
416 -101 -186 0
-417 416 0
-417 289 0
417 -416 -289 0
418 -415 0
418 -417 0
-418 415 417 0
-419 228 0
-419 289 0
419 -228 -289 0
420 -418 0
420 -419 0
-420 418 419 0
-421 113 0
-421 186 0
421 -113 -186 0
-422 421 0
-422 289 0
422 -421 -289 0
423 -420 0
423 -422 0
-423 420 422 0
-424 120 0
-424 186 0
424 -120 -186 0
-425 424 0
-425 289 0
425 -424 -289 0
426 -423 0
426 -425 0
-426 423 425 0
-427 234 0
-427 289 0
427 -234 -289 0
428 -426 0
428 -427 0
-428 426 427 0
-429 130 0
-429 186 0
429 -130 -186 0
-430 429 0
-430 289 0
430 -429 -289 0
431 -428 0
431 -430 0
-431 428 430 0
-432 149 0
-432 186 0
432 -149 -186 0
-433 432 0
-433 289 0
433 -432 -289 0
434 -431 0
434 -433 0
-434 431 433 0
-435 389 0
-435 112 0
435 -389 -112 0
-436 435 0
-436 186 0
436 -435 -186 0
-437 436 0
-437 289 0
437 -436 -289 0
438 -434 0
438 -437 0
-438 434 437 0
-439 153 0
-439 186 0
439 -153 -186 0
-440 439 0
-440 289 0
440 -439 -289 0
441 -438 0
441 -440 0
-441 438 440 0
-442 157 0
-442 186 0
442 -157 -186 0
-443 442 0
-443 289 0
443 -442 -289 0
444 -441 0
444 -443 0
-444 441 443 0
-445 255 0
-445 289 0
445 -255 -289 0
446 -444 0
446 -445 0
-446 444 445 0
-447 394 0
-447 112 0
447 -394 -112 0
-448 447 0
-448 186 0
448 -447 -186 0
-449 448 0
-449 289 0
449 -448 -289 0
450 -446 0
450 -449 0
-450 446 449 0
-451 266 0
-451 289 0
451 -266 -289 0
452 -450 0
452 -451 0
-452 450 451 0
-453 367 0
-453 186 0
453 -367 -186 0
-454 453 0
-454 289 0
454 -453 -289 0
455 -452 0
455 -454 0
-455 452 454 0
-456 277 0
-456 289 0
456 -277 -289 0
457 -455 0
457 -456 0
-457 455 456 0
-458 100 0
-458 112 0
458 -100 -112 0
-459 458 0
-459 186 0
459 -458 -186 0
-460 459 0
-460 289 0
460 -459 -289 0
461 -457 0
461 -460 0
-461 457 460 0
-462 281 0
-462 289 0
462 -281 -289 0
463 -461 0
463 -462 0
-463 461 462 0
464 -11 13 0
464 11 -13 0
-464 -11 -13 0
-464 11 13 0
465 -464 15 0
465 464 -15 0
-465 -464 -15 0
-465 464 15 0
466 -465 17 0
466 465 -17 0
-466 -465 -17 0
-466 465 17 0
467 -463 -466 0
467 463 466 0
-467 -463 466 0
-467 463 -466 0
467 0
